100
128
4
8
57
33
15
55
58
20
4
19
31
33
9
60
13
53
35
30
36
36
28
64
53
8
10
41
32
46
10
10
20
11
19
45
33
62
34
25
21
19
38
19
58
11
10
15
40
51
11
55
11
40
26
45
31
9
17
12
10
9
30
35
13
44
30
14
12
12
20
24
9
3
52
43
57
10
17
11
53
18
12
35
40
17
12
47
13
59
11
27
10
11
25
22
63
17
15
52
22
54